nK = 1769;
nT = 8;
nI = 21;
L = 29;
TT = 365;
np = 1;
nc = 3;
b = [24, 34, 58, 34, 60, 48, 46, 61, 55, 22, 63, 46, 37, 42, 44, 38, 28, 50, 49, 51, 28];
d = [49, 118, 102, 51, 124, 79, 86, 93, 148, 35, 101, 103, 148, 97, 140, 93, 96, 117, 116, 106, 53];
m = [1.3, 1, 2.2, 2, 1.3, 1.5, 1.5, 1.6, 1.1, 1, 1.9, 1.3, 2.5, 1.5, 1.4, 2.5, 2.5, 1.9, 2.2, 1.3, 2.2];
pt = [0.2, 0.31, 0.28, 0.2, 0.28, 0.22, 0.27, 0.23];
st = [11.2, 14.26, 12.88, 11.8, 16.24, 12.1, 12.42, 11.04];
arc = {<1, 0, 1, 1, 0, 0, 0, [1, 1, 1, 1, 1, 1, 1, 1]>, <2, 1, 2, 1, 0, 0, 0, [1, 1, 1, 1, 1, 1, 1, 1]>, <3, 2, 3, 1, 0, 0, 0, [1, 1, 1, 1, 1, 1, 1, 1]>, <4, 3, 4, 1, 0, 0, 0, [1, 1, 1, 1, 1, 1, 1, 1]>, <5, 4, 5, 1, 0, 0, 0, [1, 1, 1, 1, 1, 1, 1, 1]>, <6, 5, 6, 1, 0, 0, 0, [1, 1, 1, 1, 1, 1, 1, 1]>, <7, 6, 7, 1, 0, 0, 0, [1, 1, 1, 1, 1, 1, 1, 1]>, <8, 7, 8, 1, 0, 0, 0, [1, 1, 1, 1, 1, 1, 1, 1]>, <9, 8, 9, 1, 0, 0, 0, [1, 1, 1, 1, 1, 1, 1, 1]>, <10, 9, 10, 1, 0, 0, 0, [1, 1, 1, 1, 1, 1, 1, 1]>, <11, 10, 11, 1, 0, 0, 0, [1, 1, 1, 1, 1, 1, 1, 1]>, <12, 11, 12, 1, 0, 0, 0, [1, 1, 1, 1, 1, 1, 1, 1]>, <13, 12, 13, 1, 0, 0, 0, [1, 1, 1, 1, 1, 1, 1, 1]>, <14, 13, 14, 1, 0, 0, 0, [1, 1, 1, 1, 1, 1, 1, 1]>, <15, 14, 15, 1, 0, 0, 0, [1, 1, 1, 1, 1, 1, 1, 1]>, <16, 15, 16, 1, 0, 0, 0, [1, 1, 1, 1, 1, 1, 1, 1]>, <17, 16, 17, 1, 0, 0, 0, [1, 1, 1, 1, 1, 1, 1, 1]>, <18, 17, 18, 1, 0, 0, 0, [1, 1, 1, 1, 1, 1, 1, 1]>, <19, 18, 19, 1, 0, 0, 0, [1, 1, 1, 1, 1, 1, 1, 1]>, <20, 19, 20, 1, 0, 0, 0, [1, 1, 1, 1, 1, 1, 1, 1]>, <21, 20, 21, 1, 0, 0, 0, [1, 1, 1, 1, 1, 1, 1, 1]>, <22, 21, 22, 1, 0, 0, 0, [1, 1, 1, 1, 1, 1, 1, 1]>, <23, 22, 23, 1, 0, 0, 0, [1, 1, 1, 1, 1, 1, 1, 1]>, <24, 23, 24, 1, 0, 0, 0, [1, 1, 1, 1, 1, 1, 1, 1]>, <25, 24, 25, 1, 0, 0, 0, [1, 1, 1, 1, 1, 1, 1, 1]>, <26, 25, 26, 1, 0, 0, 0, [1, 1, 1, 1, 1, 1, 1, 1]>, <27, 26, 27, 1, 0, 0, 0, [1, 1, 1, 1, 1, 1, 1, 1]>, <28, 27, 28, 1, 0, 0, 0, [1, 1, 1, 1, 1, 1, 1, 1]>, <29, 28, 29, 1, 0, 0, 0, [1, 1, 1, 1, 1, 1, 1, 1]>, <30, 0, 12, 12, 1, 0, 0, [0, 0, 1, 1, 0, 0, 0, 0]>, <31, 1, 13, 12, 1, 0, 0, [0, 0, 1, 1, 0, 0, 0, 0]>, <32, 2, 14, 12, 1, 0, 0, [0, 0, 1, 1, 0, 0, 0, 0]>, <33, 3, 15, 12, 1, 0, 0, [0, 0, 1, 1, 0, 0, 0, 0]>, <34, 4, 16, 12, 1, 0, 0, [0, 0, 1, 1, 0, 0, 0, 0]>, <35, 5, 17, 12, 1, 0, 0, [0, 0, 1, 1, 0, 0, 0, 0]>, <36, 8, 20, 12, 1, 0, 0, [0, 0, 1, 1, 0, 0, 0, 0]>, <37, 9, 21, 12, 1, 0, 0, [0, 0, 1, 1, 0, 0, 0, 0]>, <38, 10, 22, 12, 1, 0, 0, [0, 0, 1, 1, 0, 0, 0, 0]>, <39, 11, 23, 12, 1, 0, 0, [0, 0, 1, 1, 0, 0, 0, 0]>, <40, 12, 24, 12, 1, 0, 0, [0, 0, 1, 1, 0, 0, 0, 0]>, <41, 13, 25, 12, 1, 0, 0, [0, 0, 1, 1, 0, 0, 0, 0]>, <42, 14, 26, 12, 1, 0, 0, [0, 0, 1, 1, 0, 0, 0, 0]>, <43, 15, 27, 12, 1, 0, 0, [0, 0, 1, 1, 0, 0, 0, 0]>, <44, 16, 28, 12, 1, 0, 0, [0, 0, 1, 1, 0, 0, 0, 0]>, <45, 17, 29, 12, 1, 0, 0, [0, 0, 1, 1, 0, 0, 0, 0]>, <46, 0, 15, 15, 2, 0, 0, [0, 0, 0, 0, 1, 1, 0, 0]>, <47, 1, 16, 15, 2, 0, 0, [0, 0, 0, 0, 1, 1, 0, 0]>, <48, 2, 17, 15, 2, 0, 0, [0, 0, 0, 0, 1, 1, 0, 0]>, <49, 3, 18, 15, 2, 0, 0, [0, 0, 0, 0, 1, 1, 0, 0]>, <50, 4, 19, 15, 2, 0, 0, [0, 0, 0, 0, 1, 1, 0, 0]>, <51, 5, 20, 15, 2, 0, 0, [0, 0, 0, 0, 1, 1, 0, 0]>, <52, 6, 21, 15, 2, 0, 0, [0, 0, 0, 0, 1, 1, 0, 0]>, <53, 7, 22, 15, 2, 0, 0, [0, 0, 0, 0, 1, 1, 0, 0]>, <54, 8, 23, 15, 2, 0, 0, [0, 0, 0, 0, 1, 1, 0, 0]>, <55, 9, 24, 15, 2, 0, 0, [0, 0, 0, 0, 1, 1, 0, 0]>, <56, 10, 25, 15, 2, 0, 0, [0, 0, 0, 0, 1, 1, 0, 0]>, <57, 11, 26, 15, 2, 0, 0, [0, 0, 0, 0, 1, 1, 0, 0]>, <58, 12, 27, 15, 2, 0, 0, [0, 0, 0, 0, 1, 1, 0, 0]>, <59, 13, 28, 15, 2, 0, 0, [0, 0, 0, 0, 1, 1, 0, 0]>, <60, 14, 29, 15, 2, 0, 0, [0, 0, 0, 0, 1, 1, 0, 0]>, <61, 0, 14, 14, 3, 0, 0, [0, 1, 1, 0, 0, 0, 0, 0]>, <62, 1, 15, 14, 3, 0, 0, [0, 1, 1, 0, 0, 0, 0, 0]>, <63, 2, 16, 14, 3, 0, 0, [0, 1, 1, 0, 0, 0, 0, 0]>, <64, 3, 17, 14, 3, 0, 0, [0, 1, 1, 0, 0, 0, 0, 0]>, <65, 4, 18, 14, 3, 0, 0, [0, 1, 1, 0, 0, 0, 0, 0]>, <66, 5, 19, 14, 3, 0, 0, [0, 1, 1, 0, 0, 0, 0, 0]>, <67, 6, 20, 14, 3, 0, 0, [0, 1, 1, 0, 0, 0, 0, 0]>, <68, 7, 21, 14, 3, 0, 0, [0, 1, 1, 0, 0, 0, 0, 0]>, <69, 8, 22, 14, 3, 0, 0, [0, 1, 1, 0, 0, 0, 0, 0]>, <70, 9, 23, 14, 3, 0, 0, [0, 1, 1, 0, 0, 0, 0, 0]>, <71, 10, 24, 14, 3, 0, 0, [0, 1, 1, 0, 0, 0, 0, 0]>, <72, 11, 25, 14, 3, 0, 0, [0, 1, 1, 0, 0, 0, 0, 0]>, <73, 12, 26, 14, 3, 0, 0, [0, 1, 1, 0, 0, 0, 0, 0]>, <74, 13, 27, 14, 3, 0, 0, [0, 1, 1, 0, 0, 0, 0, 0]>, <75, 14, 28, 14, 3, 0, 0, [0, 1, 1, 0, 0, 0, 0, 0]>, <76, 15, 29, 14, 3, 0, 0, [0, 1, 1, 0, 0, 0, 0, 0]>, <77, 0, 12, 12, 4, 0, 0, [1, 1, 0, 0, 0, 0, 0, 0]>, <78, 1, 13, 12, 4, 0, 0, [1, 1, 0, 0, 0, 0, 0, 0]>, <79, 2, 14, 12, 4, 0, 0, [1, 1, 0, 0, 0, 0, 0, 0]>, <80, 3, 15, 12, 4, 0, 0, [1, 1, 0, 0, 0, 0, 0, 0]>, <81, 4, 16, 12, 4, 0, 0, [1, 1, 0, 0, 0, 0, 0, 0]>, <82, 5, 17, 12, 4, 0, 0, [1, 1, 0, 0, 0, 0, 0, 0]>, <83, 8, 20, 12, 4, 0, 0, [1, 1, 0, 0, 0, 0, 0, 0]>, <84, 9, 21, 12, 4, 0, 0, [1, 1, 0, 0, 0, 0, 0, 0]>, <85, 10, 22, 12, 4, 0, 0, [1, 1, 0, 0, 0, 0, 0, 0]>, <86, 11, 23, 12, 4, 0, 0, [1, 1, 0, 0, 0, 0, 0, 0]>, <87, 12, 24, 12, 4, 0, 0, [1, 1, 0, 0, 0, 0, 0, 0]>, <88, 13, 25, 12, 4, 0, 0, [1, 1, 0, 0, 0, 0, 0, 0]>, <89, 14, 26, 12, 4, 0, 0, [1, 1, 0, 0, 0, 0, 0, 0]>, <90, 15, 27, 12, 4, 0, 0, [1, 1, 0, 0, 0, 0, 0, 0]>, <91, 16, 28, 12, 4, 0, 0, [1, 1, 0, 0, 0, 0, 0, 0]>, <92, 17, 29, 12, 4, 0, 0, [1, 1, 0, 0, 0, 0, 0, 0]>, <93, 0, 13, 13, 5, 0, 0, [0, 0, 0, 0, 0, 0, 1, 1]>, <94, 1, 14, 13, 5, 0, 0, [0, 0, 0, 0, 0, 0, 1, 1]>, <95, 2, 15, 13, 5, 0, 0, [0, 0, 0, 0, 0, 0, 1, 1]>, <96, 3, 16, 13, 5, 0, 0, [0, 0, 0, 0, 0, 0, 1, 1]>, <97, 4, 17, 13, 5, 0, 0, [0, 0, 0, 0, 0, 0, 1, 1]>, <98, 5, 18, 13, 5, 0, 0, [0, 0, 0, 0, 0, 0, 1, 1]>, <99, 7, 20, 13, 5, 0, 0, [0, 0, 0, 0, 0, 0, 1, 1]>, <100, 8, 21, 13, 5, 0, 0, [0, 0, 0, 0, 0, 0, 1, 1]>, <101, 9, 22, 13, 5, 0, 0, [0, 0, 0, 0, 0, 0, 1, 1]>, <102, 10, 23, 13, 5, 0, 0, [0, 0, 0, 0, 0, 0, 1, 1]>, <103, 11, 24, 13, 5, 0, 0, [0, 0, 0, 0, 0, 0, 1, 1]>, <104, 12, 25, 13, 5, 0, 0, [0, 0, 0, 0, 0, 0, 1, 1]>, <105, 13, 26, 13, 5, 0, 0, [0, 0, 0, 0, 0, 0, 1, 1]>, <106, 14, 27, 13, 5, 0, 0, [0, 0, 0, 0, 0, 0, 1, 1]>, <107, 15, 28, 13, 5, 0, 0, [0, 0, 0, 0, 0, 0, 1, 1]>, <108, 16, 29, 13, 5, 0, 0, [0, 0, 0, 0, 0, 0, 1, 1]>, <109, 0, 14, 14, 6, 1, 0, [1, 1, 0, 0, 0, 0, 0, 0]>, <110, 1, 15, 14, 6, 1, 0, [1, 1, 0, 0, 0, 0, 0, 0]>, <111, 2, 16, 14, 6, 1, 0, [1, 1, 0, 0, 0, 0, 0, 0]>, <112, 3, 17, 14, 6, 1, 0, [1, 1, 0, 0, 0, 0, 0, 0]>, <113, 4, 18, 14, 6, 1, 0, [1, 1, 0, 0, 0, 0, 0, 0]>, <114, 5, 19, 14, 6, 1, 0, [1, 1, 0, 0, 0, 0, 0, 0]>, <115, 6, 20, 14, 6, 1, 0, [1, 1, 0, 0, 0, 0, 0, 0]>, <116, 7, 21, 14, 6, 1, 0, [1, 1, 0, 0, 0, 0, 0, 0]>, <117, 8, 22, 14, 6, 1, 0, [1, 1, 0, 0, 0, 0, 0, 0]>, <118, 9, 23, 14, 6, 1, 0, [1, 1, 0, 0, 0, 0, 0, 0]>, <119, 10, 24, 14, 6, 1, 0, [1, 1, 0, 0, 0, 0, 0, 0]>, <120, 11, 25, 14, 6, 1, 0, [1, 1, 0, 0, 0, 0, 0, 0]>, <121, 12, 26, 14, 6, 1, 0, [1, 1, 0, 0, 0, 0, 0, 0]>, <122, 13, 27, 14, 6, 1, 0, [1, 1, 0, 0, 0, 0, 0, 0]>, <123, 14, 28, 14, 6, 1, 0, [1, 1, 0, 0, 0, 0, 0, 0]>, <124, 15, 29, 14, 6, 1, 0, [1, 1, 0, 0, 0, 0, 0, 0]>, <125, 0, 13, 13, 7, 1, 0, [0, 0, 0, 1, 1, 0, 0, 0]>, <126, 1, 14, 13, 7, 1, 0, [0, 0, 0, 1, 1, 0, 0, 0]>, <127, 2, 15, 13, 7, 1, 0, [0, 0, 0, 1, 1, 0, 0, 0]>, <128, 3, 16, 13, 7, 1, 0, [0, 0, 0, 1, 1, 0, 0, 0]>, <129, 4, 17, 13, 7, 1, 0, [0, 0, 0, 1, 1, 0, 0, 0]>, <130, 5, 18, 13, 7, 1, 0, [0, 0, 0, 1, 1, 0, 0, 0]>, <131, 7, 20, 13, 7, 1, 0, [0, 0, 0, 1, 1, 0, 0, 0]>, <132, 8, 21, 13, 7, 1, 0, [0, 0, 0, 1, 1, 0, 0, 0]>, <133, 9, 22, 13, 7, 1, 0, [0, 0, 0, 1, 1, 0, 0, 0]>, <134, 10, 23, 13, 7, 1, 0, [0, 0, 0, 1, 1, 0, 0, 0]>, <135, 11, 24, 13, 7, 1, 0, [0, 0, 0, 1, 1, 0, 0, 0]>, <136, 12, 25, 13, 7, 1, 0, [0, 0, 0, 1, 1, 0, 0, 0]>, <137, 13, 26, 13, 7, 1, 0, [0, 0, 0, 1, 1, 0, 0, 0]>, <138, 14, 27, 13, 7, 1, 0, [0, 0, 0, 1, 1, 0, 0, 0]>, <139, 15, 28, 13, 7, 1, 0, [0, 0, 0, 1, 1, 0, 0, 0]>, <140, 16, 29, 13, 7, 1, 0, [0, 0, 0, 1, 1, 0, 0, 0]>, <141, 0, 14, 14, 8, 0, 0, [0, 0, 0, 0, 1, 1, 0, 0]>, <142, 1, 15, 14, 8, 0, 0, [0, 0, 0, 0, 1, 1, 0, 0]>, <143, 2, 16, 14, 8, 0, 0, [0, 0, 0, 0, 1, 1, 0, 0]>, <144, 3, 17, 14, 8, 0, 0, [0, 0, 0, 0, 1, 1, 0, 0]>, <145, 4, 18, 14, 8, 0, 0, [0, 0, 0, 0, 1, 1, 0, 0]>, <146, 5, 19, 14, 8, 0, 0, [0, 0, 0, 0, 1, 1, 0, 0]>, <147, 6, 20, 14, 8, 0, 0, [0, 0, 0, 0, 1, 1, 0, 0]>, <148, 7, 21, 14, 8, 0, 0, [0, 0, 0, 0, 1, 1, 0, 0]>, <149, 8, 22, 14, 8, 0, 0, [0, 0, 0, 0, 1, 1, 0, 0]>, <150, 9, 23, 14, 8, 0, 0, [0, 0, 0, 0, 1, 1, 0, 0]>, <151, 10, 24, 14, 8, 0, 0, [0, 0, 0, 0, 1, 1, 0, 0]>, <152, 11, 25, 14, 8, 0, 0, [0, 0, 0, 0, 1, 1, 0, 0]>, <153, 12, 26, 14, 8, 0, 0, [0, 0, 0, 0, 1, 1, 0, 0]>, <154, 13, 27, 14, 8, 0, 0, [0, 0, 0, 0, 1, 1, 0, 0]>, <155, 14, 28, 14, 8, 0, 0, [0, 0, 0, 0, 1, 1, 0, 0]>, <156, 15, 29, 14, 8, 0, 0, [0, 0, 0, 0, 1, 1, 0, 0]>, <157, 0, 12, 12, 9, 0, 0, [0, 0, 0, 0, 0, 0, 1, 1]>, <158, 1, 13, 12, 9, 0, 0, [0, 0, 0, 0, 0, 0, 1, 1]>, <159, 2, 14, 12, 9, 0, 0, [0, 0, 0, 0, 0, 0, 1, 1]>, <160, 3, 15, 12, 9, 0, 0, [0, 0, 0, 0, 0, 0, 1, 1]>, <161, 4, 16, 12, 9, 0, 0, [0, 0, 0, 0, 0, 0, 1, 1]>, <162, 5, 17, 12, 9, 0, 0, [0, 0, 0, 0, 0, 0, 1, 1]>, <163, 8, 20, 12, 9, 0, 0, [0, 0, 0, 0, 0, 0, 1, 1]>, <164, 9, 21, 12, 9, 0, 0, [0, 0, 0, 0, 0, 0, 1, 1]>, <165, 10, 22, 12, 9, 0, 0, [0, 0, 0, 0, 0, 0, 1, 1]>, <166, 11, 23, 12, 9, 0, 0, [0, 0, 0, 0, 0, 0, 1, 1]>, <167, 12, 24, 12, 9, 0, 0, [0, 0, 0, 0, 0, 0, 1, 1]>, <168, 13, 25, 12, 9, 0, 0, [0, 0, 0, 0, 0, 0, 1, 1]>, <169, 14, 26, 12, 9, 0, 0, [0, 0, 0, 0, 0, 0, 1, 1]>, <170, 15, 27, 12, 9, 0, 0, [0, 0, 0, 0, 0, 0, 1, 1]>, <171, 16, 28, 12, 9, 0, 0, [0, 0, 0, 0, 0, 0, 1, 1]>, <172, 17, 29, 12, 9, 0, 0, [0, 0, 0, 0, 0, 0, 1, 1]>, <173, 0, 13, 13, 10, 0, 0, [0, 0, 1, 1, 0, 0, 0, 0]>, <174, 1, 14, 13, 10, 0, 0, [0, 0, 1, 1, 0, 0, 0, 0]>, <175, 2, 15, 13, 10, 0, 0, [0, 0, 1, 1, 0, 0, 0, 0]>, <176, 3, 16, 13, 10, 0, 0, [0, 0, 1, 1, 0, 0, 0, 0]>, <177, 4, 17, 13, 10, 0, 0, [0, 0, 1, 1, 0, 0, 0, 0]>, <178, 5, 18, 13, 10, 0, 0, [0, 0, 1, 1, 0, 0, 0, 0]>, <179, 7, 20, 13, 10, 0, 0, [0, 0, 1, 1, 0, 0, 0, 0]>, <180, 8, 21, 13, 10, 0, 0, [0, 0, 1, 1, 0, 0, 0, 0]>, <181, 9, 22, 13, 10, 0, 0, [0, 0, 1, 1, 0, 0, 0, 0]>, <182, 10, 23, 13, 10, 0, 0, [0, 0, 1, 1, 0, 0, 0, 0]>, <183, 11, 24, 13, 10, 0, 0, [0, 0, 1, 1, 0, 0, 0, 0]>, <184, 12, 25, 13, 10, 0, 0, [0, 0, 1, 1, 0, 0, 0, 0]>, <185, 13, 26, 13, 10, 0, 0, [0, 0, 1, 1, 0, 0, 0, 0]>, <186, 14, 27, 13, 10, 0, 0, [0, 0, 1, 1, 0, 0, 0, 0]>, <187, 15, 28, 13, 10, 0, 0, [0, 0, 1, 1, 0, 0, 0, 0]>, <188, 16, 29, 13, 10, 0, 0, [0, 0, 1, 1, 0, 0, 0, 0]>, <189, 0, 14, 14, 11, 1, 0, [1, 1, 0, 0, 0, 0, 0, 0]>, <190, 1, 15, 14, 11, 1, 0, [1, 1, 0, 0, 0, 0, 0, 0]>, <191, 2, 16, 14, 11, 1, 0, [1, 1, 0, 0, 0, 0, 0, 0]>, <192, 3, 17, 14, 11, 1, 0, [1, 1, 0, 0, 0, 0, 0, 0]>, <193, 4, 18, 14, 11, 1, 0, [1, 1, 0, 0, 0, 0, 0, 0]>, <194, 5, 19, 14, 11, 1, 0, [1, 1, 0, 0, 0, 0, 0, 0]>, <195, 6, 20, 14, 11, 1, 0, [1, 1, 0, 0, 0, 0, 0, 0]>, <196, 7, 21, 14, 11, 1, 0, [1, 1, 0, 0, 0, 0, 0, 0]>, <197, 8, 22, 14, 11, 1, 0, [1, 1, 0, 0, 0, 0, 0, 0]>, <198, 9, 23, 14, 11, 1, 0, [1, 1, 0, 0, 0, 0, 0, 0]>, <199, 10, 24, 14, 11, 1, 0, [1, 1, 0, 0, 0, 0, 0, 0]>, <200, 11, 25, 14, 11, 1, 0, [1, 1, 0, 0, 0, 0, 0, 0]>, <201, 12, 26, 14, 11, 1, 0, [1, 1, 0, 0, 0, 0, 0, 0]>, <202, 13, 27, 14, 11, 1, 0, [1, 1, 0, 0, 0, 0, 0, 0]>, <203, 14, 28, 14, 11, 1, 0, [1, 1, 0, 0, 0, 0, 0, 0]>, <204, 15, 29, 14, 11, 1, 0, [1, 1, 0, 0, 0, 0, 0, 0]>, <205, 1, 12, 11, 12, 0, 0, [0, 0, 0, 0, 0, 1, 1, 0]>, <206, 2, 13, 11, 12, 0, 0, [0, 0, 0, 0, 0, 1, 1, 0]>, <207, 3, 14, 11, 12, 0, 0, [0, 0, 0, 0, 0, 1, 1, 0]>, <208, 4, 15, 11, 12, 0, 0, [0, 0, 0, 0, 0, 1, 1, 0]>, <209, 5, 16, 11, 12, 0, 0, [0, 0, 0, 0, 0, 1, 1, 0]>, <210, 9, 20, 11, 12, 0, 0, [0, 0, 0, 0, 0, 1, 1, 0]>, <211, 10, 21, 11, 12, 0, 0, [0, 0, 0, 0, 0, 1, 1, 0]>, <212, 11, 22, 11, 12, 0, 0, [0, 0, 0, 0, 0, 1, 1, 0]>, <213, 12, 23, 11, 12, 0, 0, [0, 0, 0, 0, 0, 1, 1, 0]>, <214, 13, 24, 11, 12, 0, 0, [0, 0, 0, 0, 0, 1, 1, 0]>, <215, 14, 25, 11, 12, 0, 0, [0, 0, 0, 0, 0, 1, 1, 0]>, <216, 15, 26, 11, 12, 0, 0, [0, 0, 0, 0, 0, 1, 1, 0]>, <217, 16, 27, 11, 12, 0, 0, [0, 0, 0, 0, 0, 1, 1, 0]>, <218, 17, 28, 11, 12, 0, 0, [0, 0, 0, 0, 0, 1, 1, 0]>, <219, 18, 29, 11, 12, 0, 0, [0, 0, 0, 0, 0, 1, 1, 0]>, <220, 0, 12, 12, 13, 1, 0, [0, 0, 0, 1, 1, 0, 0, 0]>, <221, 1, 13, 12, 13, 1, 0, [0, 0, 0, 1, 1, 0, 0, 0]>, <222, 2, 14, 12, 13, 1, 0, [0, 0, 0, 1, 1, 0, 0, 0]>, <223, 3, 15, 12, 13, 1, 0, [0, 0, 0, 1, 1, 0, 0, 0]>, <224, 4, 16, 12, 13, 1, 0, [0, 0, 0, 1, 1, 0, 0, 0]>, <225, 5, 17, 12, 13, 1, 0, [0, 0, 0, 1, 1, 0, 0, 0]>, <226, 8, 20, 12, 13, 1, 0, [0, 0, 0, 1, 1, 0, 0, 0]>, <227, 9, 21, 12, 13, 1, 0, [0, 0, 0, 1, 1, 0, 0, 0]>, <228, 10, 22, 12, 13, 1, 0, [0, 0, 0, 1, 1, 0, 0, 0]>, <229, 11, 23, 12, 13, 1, 0, [0, 0, 0, 1, 1, 0, 0, 0]>, <230, 12, 24, 12, 13, 1, 0, [0, 0, 0, 1, 1, 0, 0, 0]>, <231, 13, 25, 12, 13, 1, 0, [0, 0, 0, 1, 1, 0, 0, 0]>, <232, 14, 26, 12, 13, 1, 0, [0, 0, 0, 1, 1, 0, 0, 0]>, <233, 15, 27, 12, 13, 1, 0, [0, 0, 0, 1, 1, 0, 0, 0]>, <234, 16, 28, 12, 13, 1, 0, [0, 0, 0, 1, 1, 0, 0, 0]>, <235, 17, 29, 12, 13, 1, 0, [0, 0, 0, 1, 1, 0, 0, 0]>, <236, 1, 12, 11, 14, 1, 0, [0, 0, 0, 0, 1, 1, 0, 0]>, <237, 2, 13, 11, 14, 1, 0, [0, 0, 0, 0, 1, 1, 0, 0]>, <238, 3, 14, 11, 14, 1, 0, [0, 0, 0, 0, 1, 1, 0, 0]>, <239, 4, 15, 11, 14, 1, 0, [0, 0, 0, 0, 1, 1, 0, 0]>, <240, 5, 16, 11, 14, 1, 0, [0, 0, 0, 0, 1, 1, 0, 0]>, <241, 9, 20, 11, 14, 1, 0, [0, 0, 0, 0, 1, 1, 0, 0]>, <242, 10, 21, 11, 14, 1, 0, [0, 0, 0, 0, 1, 1, 0, 0]>, <243, 11, 22, 11, 14, 1, 0, [0, 0, 0, 0, 1, 1, 0, 0]>, <244, 12, 23, 11, 14, 1, 0, [0, 0, 0, 0, 1, 1, 0, 0]>, <245, 13, 24, 11, 14, 1, 0, [0, 0, 0, 0, 1, 1, 0, 0]>, <246, 14, 25, 11, 14, 1, 0, [0, 0, 0, 0, 1, 1, 0, 0]>, <247, 15, 26, 11, 14, 1, 0, [0, 0, 0, 0, 1, 1, 0, 0]>, <248, 16, 27, 11, 14, 1, 0, [0, 0, 0, 0, 1, 1, 0, 0]>, <249, 17, 28, 11, 14, 1, 0, [0, 0, 0, 0, 1, 1, 0, 0]>, <250, 18, 29, 11, 14, 1, 0, [0, 0, 0, 0, 1, 1, 0, 0]>, <251, 1, 12, 11, 15, 0, 1, [0, 0, 0, 0, 1, 1, 0, 0]>, <252, 2, 13, 11, 15, 0, 1, [0, 0, 0, 0, 1, 1, 0, 0]>, <253, 3, 14, 11, 15, 0, 1, [0, 0, 0, 0, 1, 1, 0, 0]>, <254, 4, 15, 11, 15, 0, 1, [0, 0, 0, 0, 1, 1, 0, 0]>, <255, 5, 16, 11, 15, 0, 1, [0, 0, 0, 0, 1, 1, 0, 0]>, <256, 9, 20, 11, 15, 0, 1, [0, 0, 0, 0, 1, 1, 0, 0]>, <257, 10, 21, 11, 15, 0, 1, [0, 0, 0, 0, 1, 1, 0, 0]>, <258, 11, 22, 11, 15, 0, 1, [0, 0, 0, 0, 1, 1, 0, 0]>, <259, 12, 23, 11, 15, 0, 1, [0, 0, 0, 0, 1, 1, 0, 0]>, <260, 13, 24, 11, 15, 0, 1, [0, 0, 0, 0, 1, 1, 0, 0]>, <261, 14, 25, 11, 15, 0, 1, [0, 0, 0, 0, 1, 1, 0, 0]>, <262, 15, 26, 11, 15, 0, 1, [0, 0, 0, 0, 1, 1, 0, 0]>, <263, 16, 27, 11, 15, 0, 1, [0, 0, 0, 0, 1, 1, 0, 0]>, <264, 17, 28, 11, 15, 0, 1, [0, 0, 0, 0, 1, 1, 0, 0]>, <265, 18, 29, 11, 15, 0, 1, [0, 0, 0, 0, 1, 1, 0, 0]>, <266, 2, 12, 10, 16, 0, 0, [0, 0, 0, 0, 0, 1, 1, 0]>, <267, 3, 13, 10, 16, 0, 0, [0, 0, 0, 0, 0, 1, 1, 0]>, <268, 4, 14, 10, 16, 0, 0, [0, 0, 0, 0, 0, 1, 1, 0]>, <269, 5, 15, 10, 16, 0, 0, [0, 0, 0, 0, 0, 1, 1, 0]>, <270, 10, 20, 10, 16, 0, 0, [0, 0, 0, 0, 0, 1, 1, 0]>, <271, 11, 21, 10, 16, 0, 0, [0, 0, 0, 0, 0, 1, 1, 0]>, <272, 12, 22, 10, 16, 0, 0, [0, 0, 0, 0, 0, 1, 1, 0]>, <273, 14, 24, 10, 16, 0, 0, [0, 0, 0, 0, 0, 1, 1, 0]>, <274, 15, 25, 10, 16, 0, 0, [0, 0, 0, 0, 0, 1, 1, 0]>, <275, 16, 26, 10, 16, 0, 0, [0, 0, 0, 0, 0, 1, 1, 0]>, <276, 17, 27, 10, 16, 0, 0, [0, 0, 0, 0, 0, 1, 1, 0]>, <277, 18, 28, 10, 16, 0, 0, [0, 0, 0, 0, 0, 1, 1, 0]>, <278, 19, 29, 10, 16, 0, 0, [0, 0, 0, 0, 0, 1, 1, 0]>, <279, 2, 12, 10, 17, 0, 0, [0, 0, 1, 1, 0, 0, 0, 0]>, <280, 3, 13, 10, 17, 0, 0, [0, 0, 1, 1, 0, 0, 0, 0]>, <281, 4, 14, 10, 17, 0, 0, [0, 0, 1, 1, 0, 0, 0, 0]>, <282, 5, 15, 10, 17, 0, 0, [0, 0, 1, 1, 0, 0, 0, 0]>, <283, 10, 20, 10, 17, 0, 0, [0, 0, 1, 1, 0, 0, 0, 0]>, <284, 11, 21, 10, 17, 0, 0, [0, 0, 1, 1, 0, 0, 0, 0]>, <285, 12, 22, 10, 17, 0, 0, [0, 0, 1, 1, 0, 0, 0, 0]>, <286, 14, 24, 10, 17, 0, 0, [0, 0, 1, 1, 0, 0, 0, 0]>, <287, 15, 25, 10, 17, 0, 0, [0, 0, 1, 1, 0, 0, 0, 0]>, <288, 16, 26, 10, 17, 0, 0, [0, 0, 1, 1, 0, 0, 0, 0]>, <289, 17, 27, 10, 17, 0, 0, [0, 0, 1, 1, 0, 0, 0, 0]>, <290, 18, 28, 10, 17, 0, 0, [0, 0, 1, 1, 0, 0, 0, 0]>, <291, 19, 29, 10, 17, 0, 0, [0, 0, 1, 1, 0, 0, 0, 0]>, <292, 0, 14, 14, 18, 0, 1, [0, 0, 0, 0, 1, 1, 0, 0]>, <293, 1, 15, 14, 18, 0, 1, [0, 0, 0, 0, 1, 1, 0, 0]>, <294, 2, 16, 14, 18, 0, 1, [0, 0, 0, 0, 1, 1, 0, 0]>, <295, 3, 17, 14, 18, 0, 1, [0, 0, 0, 0, 1, 1, 0, 0]>, <296, 4, 18, 14, 18, 0, 1, [0, 0, 0, 0, 1, 1, 0, 0]>, <297, 5, 19, 14, 18, 0, 1, [0, 0, 0, 0, 1, 1, 0, 0]>, <298, 6, 20, 14, 18, 0, 1, [0, 0, 0, 0, 1, 1, 0, 0]>, <299, 7, 21, 14, 18, 0, 1, [0, 0, 0, 0, 1, 1, 0, 0]>, <300, 8, 22, 14, 18, 0, 1, [0, 0, 0, 0, 1, 1, 0, 0]>, <301, 9, 23, 14, 18, 0, 1, [0, 0, 0, 0, 1, 1, 0, 0]>, <302, 10, 24, 14, 18, 0, 1, [0, 0, 0, 0, 1, 1, 0, 0]>, <303, 11, 25, 14, 18, 0, 1, [0, 0, 0, 0, 1, 1, 0, 0]>, <304, 12, 26, 14, 18, 0, 1, [0, 0, 0, 0, 1, 1, 0, 0]>, <305, 13, 27, 14, 18, 0, 1, [0, 0, 0, 0, 1, 1, 0, 0]>, <306, 14, 28, 14, 18, 0, 1, [0, 0, 0, 0, 1, 1, 0, 0]>, <307, 15, 29, 14, 18, 0, 1, [0, 0, 0, 0, 1, 1, 0, 0]>, <308, 0, 15, 15, 19, 0, 1, [0, 0, 0, 0, 0, 0, 1, 1]>, <309, 1, 16, 15, 19, 0, 1, [0, 0, 0, 0, 0, 0, 1, 1]>, <310, 2, 17, 15, 19, 0, 1, [0, 0, 0, 0, 0, 0, 1, 1]>, <311, 3, 18, 15, 19, 0, 1, [0, 0, 0, 0, 0, 0, 1, 1]>, <312, 4, 19, 15, 19, 0, 1, [0, 0, 0, 0, 0, 0, 1, 1]>, <313, 5, 20, 15, 19, 0, 1, [0, 0, 0, 0, 0, 0, 1, 1]>, <314, 6, 21, 15, 19, 0, 1, [0, 0, 0, 0, 0, 0, 1, 1]>, <315, 7, 22, 15, 19, 0, 1, [0, 0, 0, 0, 0, 0, 1, 1]>, <316, 8, 23, 15, 19, 0, 1, [0, 0, 0, 0, 0, 0, 1, 1]>, <317, 9, 24, 15, 19, 0, 1, [0, 0, 0, 0, 0, 0, 1, 1]>, <318, 10, 25, 15, 19, 0, 1, [0, 0, 0, 0, 0, 0, 1, 1]>, <319, 11, 26, 15, 19, 0, 1, [0, 0, 0, 0, 0, 0, 1, 1]>, <320, 12, 27, 15, 19, 0, 1, [0, 0, 0, 0, 0, 0, 1, 1]>, <321, 13, 28, 15, 19, 0, 1, [0, 0, 0, 0, 0, 0, 1, 1]>, <322, 14, 29, 15, 19, 0, 1, [0, 0, 0, 0, 0, 0, 1, 1]>, <323, 0, 15, 15, 20, 0, 0, [0, 0, 1, 1, 0, 0, 0, 0]>, <324, 1, 16, 15, 20, 0, 0, [0, 0, 1, 1, 0, 0, 0, 0]>, <325, 2, 17, 15, 20, 0, 0, [0, 0, 1, 1, 0, 0, 0, 0]>, <326, 3, 18, 15, 20, 0, 0, [0, 0, 1, 1, 0, 0, 0, 0]>, <327, 4, 19, 15, 20, 0, 0, [0, 0, 1, 1, 0, 0, 0, 0]>, <328, 5, 20, 15, 20, 0, 0, [0, 0, 1, 1, 0, 0, 0, 0]>, <329, 6, 21, 15, 20, 0, 0, [0, 0, 1, 1, 0, 0, 0, 0]>, <330, 7, 22, 15, 20, 0, 0, [0, 0, 1, 1, 0, 0, 0, 0]>, <331, 8, 23, 15, 20, 0, 0, [0, 0, 1, 1, 0, 0, 0, 0]>, <332, 9, 24, 15, 20, 0, 0, [0, 0, 1, 1, 0, 0, 0, 0]>, <333, 10, 25, 15, 20, 0, 0, [0, 0, 1, 1, 0, 0, 0, 0]>, <334, 11, 26, 15, 20, 0, 0, [0, 0, 1, 1, 0, 0, 0, 0]>, <335, 12, 27, 15, 20, 0, 0, [0, 0, 1, 1, 0, 0, 0, 0]>, <336, 13, 28, 15, 20, 0, 0, [0, 0, 1, 1, 0, 0, 0, 0]>, <337, 14, 29, 15, 20, 0, 0, [0, 0, 1, 1, 0, 0, 0, 0]>, <338, 0, 13, 13, 21, 0, 0, [0, 0, 0, 1, 1, 0, 0, 0]>, <339, 1, 14, 13, 21, 0, 0, [0, 0, 0, 1, 1, 0, 0, 0]>, <340, 2, 15, 13, 21, 0, 0, [0, 0, 0, 1, 1, 0, 0, 0]>, <341, 3, 16, 13, 21, 0, 0, [0, 0, 0, 1, 1, 0, 0, 0]>, <342, 4, 17, 13, 21, 0, 0, [0, 0, 0, 1, 1, 0, 0, 0]>, <343, 5, 18, 13, 21, 0, 0, [0, 0, 0, 1, 1, 0, 0, 0]>, <344, 7, 20, 13, 21, 0, 0, [0, 0, 0, 1, 1, 0, 0, 0]>, <345, 8, 21, 13, 21, 0, 0, [0, 0, 0, 1, 1, 0, 0, 0]>, <346, 9, 22, 13, 21, 0, 0, [0, 0, 0, 1, 1, 0, 0, 0]>, <347, 10, 23, 13, 21, 0, 0, [0, 0, 0, 1, 1, 0, 0, 0]>, <348, 11, 24, 13, 21, 0, 0, [0, 0, 0, 1, 1, 0, 0, 0]>, <349, 12, 25, 13, 21, 0, 0, [0, 0, 0, 1, 1, 0, 0, 0]>, <350, 13, 26, 13, 21, 0, 0, [0, 0, 0, 1, 1, 0, 0, 0]>, <351, 14, 27, 13, 21, 0, 0, [0, 0, 0, 1, 1, 0, 0, 0]>, <352, 15, 28, 13, 21, 0, 0, [0, 0, 0, 1, 1, 0, 0, 0]>, <353, 16, 29, 13, 21, 0, 0, [0, 0, 0, 1, 1, 0, 0, 0]>};
